s td 8 13 20
b 1 1 2 3 4 5 6 7 8 9 11 12 18 19
b 2 1 2 3 4 5 6 7 8 11 12 16 18 19
b 3 2 5 6 7 8 10 11 12 16 18
b 4 2 3 4 5 6 7 8 9 11 12 18 19 20
b 5 2 3 4 5 6 7 8 9 12 17 18 19 20
b 6 2 4 6 7 8 9 14 17 19 20
b 7 4 6 7 8 9 13 14 20
b 8 2 3 6 8 9 12 15 17 18 20
1 2
1 4
2 3
4 5
5 6
5 8
6 7
